InboundTrucks  = 12;
OutboundTrucks = 8;
InboundDoors   = 4;
OutboundDoors  = 4;
ReleaseTime    = [97,49,82,60,52,111,25,25,86,50,7,54];
UnloadTime     = [38,38,12,43,30,22,25,41,43,22,35,30];
LoadTime       = [20,9,18,19,28,27,27,26];
TransferTime   = [| 0,43,25,0,38,40,41,27 | 0,21,50,16,12,34,26,10 | 21,23,22,17,0,0,24,22 | 37,25,29,0,22,29,28,31 | 39,0,32,13,49,22,34,0 | 43,46,0,0,36,0,25,45 | 32,32,0,0,47,30,10,15 | 42,34,46,30,16,28,20,26 | 48,41,29,18,0,21,45,0 | 0,0,0,0,21,32,0,39 | 48,18,11,41,16,22,46,20 | 0,0,13,0,0,34,10,33 |];
